row=9;
column=9;
Board=[|3,0,0,0,0,0,0,0,0|0,2,0,4,0,5,0,0,0|0,3,0,0,0,0,6,0,0|3,0,1,0,0,0,0,0,7|0,0,0,0,0,0,0,0,0|0,0,0,0,0,0,4,0,0|0,2,0,0,0,1,0,0,0|0,0,0,0,0,0,0,0,0|1,0,0,0,0,0,0,0,0|];
right = [1,0,2,1,1,0,3,1,1];
bottom = [1,1,3,0,1,3,0,1,0];
